40 30
31 32
27 23
32 22
30 15
39 10
48 28
56 37
30 40
17 33
7 38
30 48
38 46
32 39
25 32
25 55
12 42
8 52
5 64
52 33
51 21
58 27
61 33
59 15
21 10
20 26
5 25
13 13
10 17
45 35
52 41
62 42
58 48
62 63
63 69
57 58
42 57
43 67
37 69
37 52
49 49
42 41
36 16
46 10
5 6
21 47
17 63
16 57
27 68
31 62
52 64
40 30
